UO2
   1.00000000000000
     5.3714409382234889    0.0000000000000000    0.0000000000000000
     0.0000000000000000    5.3714409382234889    0.0000000000000000
     0.0000000000000000    0.0000000000000000    5.3714409382234889
   U    O
     4     8
Direct
  0.0000000000000000  0.0000000000000000  0.0000000000000000
  0.0000000000000000  0.5000000000000000  0.5000000000000000
  0.5000000000000000  0.0000000000000000  0.5000000000000000
  0.5000000000000000  0.5000000000000000  0.0000000000000000
  0.2500000000000000  0.7500000000000000  0.2500000000000000
  0.7500000000000000  0.2500000000000000  0.7500000000000000
  0.7500000000000000  0.2500000000000000  0.2500000000000000
  0.2500000000000000  0.7500000000000000  0.7500000000000000
  0.7500000000000000  0.7500000000000000  0.7500000000000000
  0.2500000000000000  0.2500000000000000  0.2500000000000000
  0.2500000000000000  0.2500000000000000  0.7500000000000000
  0.7500000000000000  0.7500000000000000  0.2500000000000000

